(set-logic ALL)
(declare-const url1 String)
(declare-const url2 String)
(declare-const msg_prefix String)
(assert (not (< (str.len url1) 0)))
(assert (not (> (+ 0 (str.indexof url1 ":" 0)) 0)))
(assert (not (= (str.substr url1 0 (- 2 0)) "//")))
(assert (not (str.contains url1 "#")))
(assert (not (str.contains url1 "?")))
(assert (not (str.contains url1 ";")))
(assert (not (< (str.len url2) 0)))
(assert (not (> (+ 0 (str.indexof url2 ":" 0)) 0)))
(assert (= url2 "//"))
(assert (not (< (str.len url2) 0)))
(assert (not (>= (+ 2 (str.indexof (str.substr url2 2 (- (str.len url2) 2)) "/" 0)) 0)))
(assert (not (< (str.len url2) 0)))
(assert (not (>= (+ 2 (str.indexof (str.substr url2 2 (- (str.len url2) 2)) "?" 0)) 0)))
(assert (not (< (str.len url2) 0)))
(assert (not (>= (+ 2 (str.indexof (str.substr url2 2 (- (str.len url2) 2)) "#" 0)) 0)))
(assert (not (< (str.len url2) 0)))
(assert (< (str.len url2) 0))
(check-sat)
(get-value (url1))
(get-value (url2))
(get-value (msg_prefix))
